result&benchmarks/Data/Ex1/verify/Output/prodbin-ll_unwindbound1_process_dc_iter2Output/Counterexample.3.txt
none:	N37 -{INIT GLOBAL VARS}-> N95
/usr/include/assert.h, lines 69-71:	N95 -{void __assert_fail(const char *__assertion, const char *__file, unsigned int __line, const char *__function);}-> N96
/usr/include/assert.h, lines 74-76:	N96 -{void __assert_perror_fail(int __errnum, const char *__file, unsigned int __line, const char *__function);}-> N97
/usr/include/assert.h, lines 81-82:	N97 -{void __assert(const char *__assertion, const char *__file, int __line);}-> N98
/usr/include/x86_64-linux-gnu/bits/types.h, line 31:	N98 -{typedef unsigned char __u_char;}-> N99
/usr/include/x86_64-linux-gnu/bits/types.h, line 32:	N99 -{typedef unsigned short int __u_short;}-> N100
/usr/include/x86_64-linux-gnu/bits/types.h, line 33:	N100 -{typedef unsigned int __u_int;}-> N101
/usr/include/x86_64-linux-gnu/bits/types.h, line 34:	N101 -{typedef unsigned long int __u_long;}-> N102
/usr/include/x86_64-linux-gnu/bits/types.h, line 37:	N102 -{typedef signed char __int8_t;}-> N103
/usr/include/x86_64-linux-gnu/bits/types.h, line 38:	N103 -{typedef unsigned char __uint8_t;}-> N104
/usr/include/x86_64-linux-gnu/bits/types.h, line 39:	N104 -{typedef signed short int __int16_t;}-> N105
/usr/include/x86_64-linux-gnu/bits/types.h, line 40:	N105 -{typedef unsigned short int __uint16_t;}-> N106
/usr/include/x86_64-linux-gnu/bits/types.h, line 41:	N106 -{typedef signed int __int32_t;}-> N107
/usr/include/x86_64-linux-gnu/bits/types.h, line 42:	N107 -{typedef unsigned int __uint32_t;}-> N108
/usr/include/x86_64-linux-gnu/bits/types.h, line 44:	N108 -{typedef signed long int __int64_t;}-> N109
/usr/include/x86_64-linux-gnu/bits/types.h, line 45:	N109 -{typedef unsigned long int __uint64_t;}-> N110
/usr/include/x86_64-linux-gnu/bits/types.h, line 52:	N110 -{typedef __int8_t __int_least8_t;}-> N111
/usr/include/x86_64-linux-gnu/bits/types.h, line 53:	N111 -{typedef __uint8_t __uint_least8_t;}-> N112
/usr/include/x86_64-linux-gnu/bits/types.h, line 54:	N112 -{typedef __int16_t __int_least16_t;}-> N113
/usr/include/x86_64-linux-gnu/bits/types.h, line 55:	N113 -{typedef __uint16_t __uint_least16_t;}-> N114
/usr/include/x86_64-linux-gnu/bits/types.h, line 56:	N114 -{typedef __int32_t __int_least32_t;}-> N115
/usr/include/x86_64-linux-gnu/bits/types.h, line 57:	N115 -{typedef __uint32_t __uint_least32_t;}-> N116
/usr/include/x86_64-linux-gnu/bits/types.h, line 58:	N116 -{typedef __int64_t __int_least64_t;}-> N117
/usr/include/x86_64-linux-gnu/bits/types.h, line 59:	N117 -{typedef __uint64_t __uint_least64_t;}-> N118
/usr/include/x86_64-linux-gnu/bits/types.h, line 63:	N118 -{typedef long int __quad_t;}-> N119
/usr/include/x86_64-linux-gnu/bits/types.h, line 64:	N119 -{typedef unsigned long int __u_quad_t;}-> N120
/usr/include/x86_64-linux-gnu/bits/types.h, line 72:	N120 -{typedef long int __intmax_t;}-> N121
/usr/include/x86_64-linux-gnu/bits/types.h, line 73:	N121 -{typedef unsigned long int __uintmax_t;}-> N122
/usr/include/x86_64-linux-gnu/bits/types.h, line 145:	N122 -{typedef unsigned long int __dev_t;}-> N123
/usr/include/x86_64-linux-gnu/bits/types.h, line 146:	N123 -{typedef unsigned int __uid_t;}-> N124
/usr/include/x86_64-linux-gnu/bits/types.h, line 147:	N124 -{typedef unsigned int __gid_t;}-> N125
/usr/include/x86_64-linux-gnu/bits/types.h, line 148:	N125 -{typedef unsigned long int __ino_t;}-> N126
/usr/include/x86_64-linux-gnu/bits/types.h, line 149:	N126 -{typedef unsigned long int __ino64_t;}-> N127
/usr/include/x86_64-linux-gnu/bits/types.h, line 150:	N127 -{typedef unsigned int __mode_t;}-> N128
/usr/include/x86_64-linux-gnu/bits/types.h, line 151:	N128 -{typedef unsigned long int __nlink_t;}-> N129
/usr/include/x86_64-linux-gnu/bits/types.h, line 152:	N129 -{typedef long int __off_t;}-> N130
/usr/include/x86_64-linux-gnu/bits/types.h, line 153:	N130 -{typedef long int __off64_t;}-> N131
/usr/include/x86_64-linux-gnu/bits/types.h, line 154:	N131 -{typedef int __pid_t;}-> N132
/usr/include/x86_64-linux-gnu/bits/types.h, line 155:	N132 -{struct __anon_type___fsid_t {   int __val[2]; } ;}-> N133
/usr/include/x86_64-linux-gnu/bits/types.h, line 155:	N133 -{typedef struct __anon_type___fsid_t __fsid_t;}-> N134
/usr/include/x86_64-linux-gnu/bits/types.h, line 156:	N134 -{typedef long int __clock_t;}-> N135
/usr/include/x86_64-linux-gnu/bits/types.h, line 157:	N135 -{typedef unsigned long int __rlim_t;}-> N136
/usr/include/x86_64-linux-gnu/bits/types.h, line 158:	N136 -{typedef unsigned long int __rlim64_t;}-> N137
/usr/include/x86_64-linux-gnu/bits/types.h, line 159:	N137 -{typedef unsigned int __id_t;}-> N138
/usr/include/x86_64-linux-gnu/bits/types.h, line 160:	N138 -{typedef long int __time_t;}-> N139
/usr/include/x86_64-linux-gnu/bits/types.h, line 161:	N139 -{typedef unsigned int __useconds_t;}-> N140
/usr/include/x86_64-linux-gnu/bits/types.h, line 162:	N140 -{typedef long int __suseconds_t;}-> N141
/usr/include/x86_64-linux-gnu/bits/types.h, line 163:	N141 -{typedef long int __suseconds64_t;}-> N142
/usr/include/x86_64-linux-gnu/bits/types.h, line 165:	N142 -{typedef int __daddr_t;}-> N143
/usr/include/x86_64-linux-gnu/bits/types.h, line 166:	N143 -{typedef int __key_t;}-> N144
/usr/include/x86_64-linux-gnu/bits/types.h, line 169:	N144 -{typedef int __clockid_t;}-> N145
/usr/include/x86_64-linux-gnu/bits/types.h, line 172:	N145 -{typedef void *__timer_t;}-> N146
/usr/include/x86_64-linux-gnu/bits/types.h, line 175:	N146 -{typedef long int __blksize_t;}-> N147
/usr/include/x86_64-linux-gnu/bits/types.h, line 180:	N147 -{typedef long int __blkcnt_t;}-> N148
/usr/include/x86_64-linux-gnu/bits/types.h, line 181:	N148 -{typedef long int __blkcnt64_t;}-> N149
/usr/include/x86_64-linux-gnu/bits/types.h, line 184:	N149 -{typedef unsigned long int __fsblkcnt_t;}-> N150
/usr/include/x86_64-linux-gnu/bits/types.h, line 185:	N150 -{typedef unsigned long int __fsblkcnt64_t;}-> N151
/usr/include/x86_64-linux-gnu/bits/types.h, line 188:	N151 -{typedef unsigned long int __fsfilcnt_t;}-> N152
/usr/include/x86_64-linux-gnu/bits/types.h, line 189:	N152 -{typedef unsigned long int __fsfilcnt64_t;}-> N153
/usr/include/x86_64-linux-gnu/bits/types.h, line 192:	N153 -{typedef long int __fsword_t;}-> N154
/usr/include/x86_64-linux-gnu/bits/types.h, line 194:	N154 -{typedef long int __ssize_t;}-> N155
/usr/include/x86_64-linux-gnu/bits/types.h, line 197:	N155 -{typedef long int __syscall_slong_t;}-> N156
/usr/include/x86_64-linux-gnu/bits/types.h, line 199:	N156 -{typedef unsigned long int __syscall_ulong_t;}-> N157
/usr/include/x86_64-linux-gnu/bits/types.h, line 203:	N157 -{typedef __off64_t __loff_t;}-> N158
/usr/include/x86_64-linux-gnu/bits/types.h, line 204:	N158 -{typedef char *__caddr_t;}-> N159
/usr/include/x86_64-linux-gnu/bits/types.h, line 207:	N159 -{typedef long int __intptr_t;}-> N160
/usr/include/x86_64-linux-gnu/bits/types.h, line 210:	N160 -{typedef unsigned int __socklen_t;}-> N161
/usr/include/x86_64-linux-gnu/bits/types.h, line 215:	N161 -{typedef int __sig_atomic_t;}-> N162
/usr/include/x86_64-linux-gnu/bits/stdint-intn.h, line 24:	N162 -{typedef __int8_t int8_t;}-> N163
/usr/include/x86_64-linux-gnu/bits/stdint-intn.h, line 25:	N163 -{typedef __int16_t int16_t;}-> N164
/usr/include/x86_64-linux-gnu/bits/stdint-intn.h, line 26:	N164 -{typedef __int32_t int32_t;}-> N165
/usr/include/x86_64-linux-gnu/bits/stdint-intn.h, line 27:	N165 -{typedef __int64_t int64_t;}-> N166
/usr/include/x86_64-linux-gnu/bits/stdint-uintn.h, line 24:	N166 -{typedef __uint8_t uint8_t;}-> N167
/usr/include/x86_64-linux-gnu/bits/stdint-uintn.h, line 25:	N167 -{typedef __uint16_t uint16_t;}-> N168
/usr/include/x86_64-linux-gnu/bits/stdint-uintn.h, line 26:	N168 -{typedef __uint32_t uint32_t;}-> N169
/usr/include/x86_64-linux-gnu/bits/stdint-uintn.h, line 27:	N169 -{typedef __uint64_t uint64_t;}-> N170
/usr/include/stdint.h, line 43:	N170 -{typedef __int_least8_t int_least8_t;}-> N171
/usr/include/stdint.h, line 44:	N171 -{typedef __int_least16_t int_least16_t;}-> N172
/usr/include/stdint.h, line 45:	N172 -{typedef __int_least32_t int_least32_t;}-> N173
/usr/include/stdint.h, line 46:	N173 -{typedef __int_least64_t int_least64_t;}-> N174
/usr/include/stdint.h, line 49:	N174 -{typedef __uint_least8_t uint_least8_t;}-> N175
/usr/include/stdint.h, line 50:	N175 -{typedef __uint_least16_t uint_least16_t;}-> N176
/usr/include/stdint.h, line 51:	N176 -{typedef __uint_least32_t uint_least32_t;}-> N177
/usr/include/stdint.h, line 52:	N177 -{typedef __uint_least64_t uint_least64_t;}-> N178
/usr/include/stdint.h, line 58:	N178 -{typedef signed char int_fast8_t;}-> N179
/usr/include/stdint.h, line 60:	N179 -{typedef long int int_fast16_t;}-> N180
/usr/include/stdint.h, line 61:	N180 -{typedef long int int_fast32_t;}-> N181
/usr/include/stdint.h, line 62:	N181 -{typedef long int int_fast64_t;}-> N182
/usr/include/stdint.h, line 71:	N182 -{typedef unsigned char uint_fast8_t;}-> N183
/usr/include/stdint.h, line 73:	N183 -{typedef unsigned long int uint_fast16_t;}-> N184
/usr/include/stdint.h, line 74:	N184 -{typedef unsigned long int uint_fast32_t;}-> N185
/usr/include/stdint.h, line 75:	N185 -{typedef unsigned long int uint_fast64_t;}-> N186
/usr/include/stdint.h, line 87:	N186 -{typedef long int intptr_t;}-> N187
/usr/include/stdint.h, line 90:	N187 -{typedef unsigned long int uintptr_t;}-> N188
/usr/include/stdint.h, line 101:	N188 -{typedef __intmax_t intmax_t;}-> N189
/usr/include/stdint.h, line 102:	N189 -{typedef __uintmax_t uintmax_t;}-> N190
/usr/lib/gcc/x86_64-linux-gnu/11/include/stddef.h, line 209:	N190 -{typedef unsigned long int size_t;}-> N191
/usr/lib/gcc/x86_64-linux-gnu/11/include/stddef.h, line 321:	N191 -{typedef int wchar_t;}-> N192
/usr/include/stdlib.h, lines 59-63:	N192 -{struct __anon_type_div_t {   int quot;   int rem; } ;}-> N193
/usr/include/stdlib.h, lines 59-63:	N193 -{typedef struct __anon_type_div_t div_t;}-> N194
/usr/include/stdlib.h, lines 67-71:	N194 -{struct __anon_type_ldiv_t {   long int quot;   long int rem; } ;}-> N195
/usr/include/stdlib.h, lines 67-71:	N195 -{typedef struct __anon_type_ldiv_t ldiv_t;}-> N196
/usr/include/stdlib.h, lines 77-81:	N196 -{struct __anon_type_lldiv_t {   long long int quot;   long long int rem; } ;}-> N197
/usr/include/stdlib.h, lines 77-81:	N197 -{typedef struct __anon_type_lldiv_t lldiv_t;}-> N198
/usr/include/stdlib.h, line 98:	N198 -{size_t __ctype_get_mb_cur_max();}-> N199
/usr/include/stdlib.h, lines 102-103:	N199 -{double atof(const char *__nptr);}-> N200
/usr/include/stdlib.h, lines 105-106:	N200 -{int atoi(const char *__nptr);}-> N201
/usr/include/stdlib.h, lines 108-109:	N201 -{long int atol(const char *__nptr);}-> N202
/usr/include/stdlib.h, lines 113-114:	N202 -{long long int atoll(const char *__nptr);}-> N203
/usr/include/stdlib.h, lines 118-120:	N203 -{double strtod(const char *__nptr, char **__endptr);}-> N204
/usr/include/stdlib.h, lines 124-125:	N204 -{float strtof(const char *__nptr, char **__endptr);}-> N205
/usr/include/stdlib.h, lines 127-129:	N205 -{long double strtold(const char *__nptr, char **__endptr);}-> N206
/usr/include/stdlib.h, lines 177-179:	N206 -{long int strtol(const char *__nptr, char **__endptr, int __base);}-> N207
/usr/include/stdlib.h, lines 181-183:	N207 -{unsigned long int strtoul(const char *__nptr, char **__endptr, int __base);}-> N208
/usr/include/stdlib.h, lines 188-190:	N208 -{long long int strtoq(const char *__nptr, char **__endptr, int __base);}-> N209
/usr/include/stdlib.h, lines 193-195:	N209 -{unsigned long long int strtouq(const char *__nptr, char **__endptr, int __base);}-> N210
/usr/include/stdlib.h, lines 201-203:	N210 -{long long int strtoll(const char *__nptr, char **__endptr, int __base);}-> N211
/usr/include/stdlib.h, lines 206-208:	N211 -{unsigned long long int strtoull(const char *__nptr, char **__endptr, int __base);}-> N212
/usr/include/stdlib.h, line 386:	N212 -{char *l64a(long int __n);}-> N213
/usr/include/stdlib.h, lines 389-390:	N213 -{long int a64l(const char *__s);}-> N214
/usr/include/x86_64-linux-gnu/sys/types.h, line 33:	N214 -{typedef __u_char u_char;}-> N215
/usr/include/x86_64-linux-gnu/sys/types.h, line 34:	N215 -{typedef __u_short u_short;}-> N216
/usr/include/x86_64-linux-gnu/sys/types.h, line 35:	N216 -{typedef __u_int u_int;}-> N217
/usr/include/x86_64-linux-gnu/sys/types.h, line 36:	N217 -{typedef __u_long u_long;}-> N218
/usr/include/x86_64-linux-gnu/sys/types.h, line 37:	N218 -{typedef __quad_t quad_t;}-> N219
/usr/include/x86_64-linux-gnu/sys/types.h, line 38:	N219 -{typedef __u_quad_t u_quad_t;}-> N220
/usr/include/x86_64-linux-gnu/sys/types.h, line 39:	N220 -{typedef __fsid_t fsid_t;}-> N221
/usr/include/x86_64-linux-gnu/sys/types.h, line 42:	N221 -{typedef __loff_t loff_t;}-> N222
/usr/include/x86_64-linux-gnu/sys/types.h, line 47:	N222 -{typedef __ino_t ino_t;}-> N223
/usr/include/x86_64-linux-gnu/sys/types.h, line 59:	N223 -{typedef __dev_t dev_t;}-> N224
/usr/include/x86_64-linux-gnu/sys/types.h, line 64:	N224 -{typedef __gid_t gid_t;}-> N225
/usr/include/x86_64-linux-gnu/sys/types.h, line 69:	N225 -{typedef __mode_t mode_t;}-> N226
/usr/include/x86_64-linux-gnu/sys/types.h, line 74:	N226 -{typedef __nlink_t nlink_t;}-> N227
/usr/include/x86_64-linux-gnu/sys/types.h, line 79:	N227 -{typedef __uid_t uid_t;}-> N228
/usr/include/x86_64-linux-gnu/sys/types.h, line 85:	N228 -{typedef __off_t off_t;}-> N229
/usr/include/x86_64-linux-gnu/sys/types.h, line 97:	N229 -{typedef __pid_t pid_t;}-> N230
/usr/include/x86_64-linux-gnu/sys/types.h, line 103:	N230 -{typedef __id_t id_t;}-> N231
/usr/include/x86_64-linux-gnu/sys/types.h, line 108:	N231 -{typedef __ssize_t ssize_t;}-> N232
/usr/include/x86_64-linux-gnu/sys/types.h, line 114:	N232 -{typedef __daddr_t daddr_t;}-> N233
/usr/include/x86_64-linux-gnu/sys/types.h, line 115:	N233 -{typedef __caddr_t caddr_t;}-> N234
/usr/include/x86_64-linux-gnu/sys/types.h, line 121:	N234 -{typedef __key_t key_t;}-> N235
/usr/include/x86_64-linux-gnu/bits/types/clock_t.h, line 7:	N235 -{typedef __clock_t clock_t;}-> N236
/usr/include/x86_64-linux-gnu/bits/types/clockid_t.h, line 7:	N236 -{typedef __clockid_t clockid_t;}-> N237
/usr/include/x86_64-linux-gnu/bits/types/time_t.h, line 10:	N237 -{typedef __time_t time_t;}-> N238
/usr/include/x86_64-linux-gnu/bits/types/timer_t.h, line 7:	N238 -{typedef __timer_t timer_t;}-> N239
/usr/include/x86_64-linux-gnu/sys/types.h, line 148:	N239 -{typedef unsigned long int ulong;}-> N240
/usr/include/x86_64-linux-gnu/sys/types.h, line 149:	N240 -{typedef unsigned short int ushort;}-> N241
/usr/include/x86_64-linux-gnu/sys/types.h, line 150:	N241 -{typedef unsigned int uint;}-> N242
/usr/include/x86_64-linux-gnu/sys/types.h, line 158:	N242 -{typedef __uint8_t u_int8_t;}-> N243
/usr/include/x86_64-linux-gnu/sys/types.h, line 159:	N243 -{typedef __uint16_t u_int16_t;}-> N244
/usr/include/x86_64-linux-gnu/sys/types.h, line 160:	N244 -{typedef __uint32_t u_int32_t;}-> N245
/usr/include/x86_64-linux-gnu/sys/types.h, line 161:	N245 -{typedef __uint64_t u_int64_t;}-> N246
/usr/include/x86_64-linux-gnu/sys/types.h, line 164:	N246 -{typedef signed int register_t;}-> N247
/usr/include/x86_64-linux-gnu/bits/byteswap.h, lines 33-41:	N247 -{__uint16_t __bswap_16(__uint16_t __bsx);}-> N248
/usr/include/x86_64-linux-gnu/bits/byteswap.h, lines 48-56:	N248 -{__uint32_t __bswap_32(__uint32_t __bsx);}-> N249
/usr/include/x86_64-linux-gnu/bits/byteswap.h, lines 69-77:	N249 -{__uint64_t __bswap_64(__uint64_t __bsx);}-> N250
/usr/include/x86_64-linux-gnu/bits/uintn-identity.h, lines 32-36:	N250 -{__uint16_t __uint16_identity(__uint16_t __x);}-> N251
/usr/include/x86_64-linux-gnu/bits/uintn-identity.h, lines 38-42:	N251 -{__uint32_t __uint32_identity(__uint32_t __x);}-> N252
/usr/include/x86_64-linux-gnu/bits/uintn-identity.h, lines 44-48:	N252 -{__uint64_t __uint64_identity(__uint64_t __x);}-> N253
/usr/include/x86_64-linux-gnu/bits/types/__sigset_t.h, lines 5-8:	N253 -{struct __anon_type___sigset_t {   unsigned long int __val[32UL]; } ;}-> N254
/usr/include/x86_64-linux-gnu/bits/types/__sigset_t.h, lines 5-8:	N254 -{typedef struct __anon_type___sigset_t __sigset_t;}-> N255
/usr/include/x86_64-linux-gnu/bits/types/sigset_t.h, line 7:	N255 -{typedef __sigset_t sigset_t;}-> N256
/usr/include/x86_64-linux-gnu/bits/types/struct_timeval.h, lines 8-17:	N256 -{struct timeval {   __time_t tv_sec;   __suseconds_t tv_usec; } ;}-> N257
/usr/include/x86_64-linux-gnu/bits/types/struct_timespec.h, lines 11-31:	N257 -{struct timespec {   __time_t tv_sec;   __syscall_slong_t tv_nsec; } ;}-> N258
/usr/include/x86_64-linux-gnu/sys/select.h, line 43:	N258 -{typedef __suseconds_t suseconds_t;}-> N259
/usr/include/x86_64-linux-gnu/sys/select.h, line 49:	N259 -{typedef long int __fd_mask;}-> N260
/usr/include/x86_64-linux-gnu/sys/select.h, lines 59-70:	N260 -{struct __anon_type_fd_set {   __fd_mask __fds_bits[32]; } ;}-> N261
/usr/include/x86_64-linux-gnu/sys/select.h, lines 59-70:	N261 -{typedef struct __anon_type_fd_set fd_set;}-> N262
/usr/include/x86_64-linux-gnu/sys/select.h, line 77:	N262 -{typedef __fd_mask fd_mask;}-> N263
/usr/include/x86_64-linux-gnu/sys/select.h, lines 102-105:	N263 -{int select(int __nfds, fd_set *__readfds, fd_set *__writefds, fd_set *__exceptfds, struct timeval *__timeout);}-> N264
/usr/include/x86_64-linux-gnu/sys/select.h, lines 127-131:	N264 -{int pselect(int __nfds, fd_set *__readfds, fd_set *__writefds, fd_set *__exceptfds, const struct timespec *__timeout, const __sigset_t *__sigmask);}-> N265
/usr/include/x86_64-linux-gnu/sys/types.h, line 185:	N265 -{typedef __blksize_t blksize_t;}-> N266
/usr/include/x86_64-linux-gnu/sys/types.h, line 192:	N266 -{typedef __blkcnt_t blkcnt_t;}-> N267
/usr/include/x86_64-linux-gnu/sys/types.h, line 196:	N267 -{typedef __fsblkcnt_t fsblkcnt_t;}-> N268
/usr/include/x86_64-linux-gnu/sys/types.h, line 200:	N268 -{typedef __fsfilcnt_t fsfilcnt_t;}-> N269
/usr/include/x86_64-linux-gnu/bits/atomic_wide_counter.h, lines 28-32:	N269 -{struct __anon_type_0 {   unsigned int __low;   unsigned int __high; } ;}-> N270
/usr/include/x86_64-linux-gnu/bits/atomic_wide_counter.h, lines 25-33:	N270 -{union __anon_type___atomic_wide_counter {   unsigned long long int __value64;   struct __anon_type_0 __value32; } ;}-> N271
/usr/include/x86_64-linux-gnu/bits/atomic_wide_counter.h, lines 25-33:	N271 -{typedef union __anon_type___atomic_wide_counter __atomic_wide_counter;}-> N272
/usr/include/x86_64-linux-gnu/bits/thread-shared-types.h, lines 51-55:	N272 -{struct __pthread_internal_list {   struct __pthread_internal_list *__prev;   struct __pthread_internal_list *__next; } ;}-> N273
/usr/include/x86_64-linux-gnu/bits/thread-shared-types.h, lines 51-55:	N273 -{typedef struct __pthread_internal_list __pthread_list_t;}-> N274
/usr/include/x86_64-linux-gnu/bits/thread-shared-types.h, lines 57-60:	N274 -{struct __pthread_internal_slist {   struct __pthread_internal_slist *__next; } ;}-> N275
/usr/include/x86_64-linux-gnu/bits/thread-shared-types.h, lines 57-60:	N275 -{typedef struct __pthread_internal_slist __pthread_slist_t;}-> N276
/usr/include/x86_64-linux-gnu/bits/struct_mutex.h, lines 22-53:	N276 -{struct __pthread_mutex_s {   int __lock;   unsigned int __count;   int __owner;   unsigned int __nusers;   int __kind;   short __spins;   short __elision;   __pthread_list_t __list; } ;}-> N277
/usr/include/x86_64-linux-gnu/bits/struct_rwlock.h, lines 23-55:	N277 -{struct __pthread_rwlock_arch_t {   unsigned int __readers;   unsigned int __writers;   unsigned int __wrphase_futex;   unsigned int __writers_futex;   unsigned int __pad3;   unsigned int __pad4;   int __cur_writer;   int __shared;   signed char __rwelision;   unsigned char __pad1[7];   unsigned long int __pad2;   unsigned int __flags; } ;}-> N278
/usr/include/x86_64-linux-gnu/bits/thread-shared-types.h, lines 94-103:	N278 -{struct __pthread_cond_s {   __atomic_wide_counter __wseq;   __atomic_wide_counter __g1_start;   unsigned int __g_refs[2];   unsigned int __g_size[2];   unsigned int __g1_orig_size;   unsigned int __wrefs;   unsigned int __g_signals[2]; } ;}-> N279
/usr/include/x86_64-linux-gnu/bits/thread-shared-types.h, line 105:	N279 -{typedef unsigned int __tss_t;}-> N280
/usr/include/x86_64-linux-gnu/bits/thread-shared-types.h, line 106:	N280 -{typedef unsigned long int __thrd_t;}-> N281
/usr/include/x86_64-linux-gnu/bits/thread-shared-types.h, lines 108-111:	N281 -{struct __anon_type___once_flag {   int __data; } ;}-> N282
/usr/include/x86_64-linux-gnu/bits/thread-shared-types.h, lines 108-111:	N282 -{typedef struct __anon_type___once_flag __once_flag;}-> N283
/usr/include/x86_64-linux-gnu/bits/pthreadtypes.h, line 27:	N283 -{typedef unsigned long int pthread_t;}-> N284
/usr/include/x86_64-linux-gnu/bits/pthreadtypes.h, lines 32-36:	N284 -{union __anon_type_pthread_mutexattr_t {   char __size[4];   int __align; } ;}-> N285
/usr/include/x86_64-linux-gnu/bits/pthreadtypes.h, lines 32-36:	N285 -{typedef union __anon_type_pthread_mutexattr_t pthread_mutexattr_t;}-> N286
/usr/include/x86_64-linux-gnu/bits/pthreadtypes.h, lines 41-45:	N286 -{union __anon_type_pthread_condattr_t {   char __size[4];   int __align; } ;}-> N287
/usr/include/x86_64-linux-gnu/bits/pthreadtypes.h, lines 41-45:	N287 -{typedef union __anon_type_pthread_mutexattr_t pthread_condattr_t;}-> N288
/usr/include/x86_64-linux-gnu/bits/pthreadtypes.h, line 49:	N288 -{typedef unsigned int pthread_key_t;}-> N289
/usr/include/x86_64-linux-gnu/bits/pthreadtypes.h, line 53:	N289 -{typedef int pthread_once_t;}-> N290
/usr/include/x86_64-linux-gnu/bits/pthreadtypes.h, lines 56-60:	N290 -{union pthread_attr_t {   char __size[56];   long int __align; } ;}-> N291
/usr/include/x86_64-linux-gnu/bits/pthreadtypes.h, line 62:	N291 -{typedef union pthread_attr_t pthread_attr_t;}-> N292
/usr/include/x86_64-linux-gnu/bits/pthreadtypes.h, lines 67-72:	N292 -{union __anon_type_pthread_mutex_t {   struct __pthread_mutex_s __data;   char __size[40];   long int __align; } ;}-> N293
/usr/include/x86_64-linux-gnu/bits/pthreadtypes.h, lines 67-72:	N293 -{typedef union __anon_type_pthread_mutex_t pthread_mutex_t;}-> N294
/usr/include/x86_64-linux-gnu/bits/pthreadtypes.h, lines 75-80:	N294 -{union __anon_type_pthread_cond_t {   struct __pthread_cond_s __data;   char __size[48];   long long int __align; } ;}-> N295
/usr/include/x86_64-linux-gnu/bits/pthreadtypes.h, lines 75-80:	N295 -{typedef union __anon_type_pthread_cond_t pthread_cond_t;}-> N296
/usr/include/x86_64-linux-gnu/bits/pthreadtypes.h, lines 86-91:	N296 -{union __anon_type_pthread_rwlock_t {   struct __pthread_rwlock_arch_t __data;   char __size[56];   long int __align; } ;}-> N297
/usr/include/x86_64-linux-gnu/bits/pthreadtypes.h, lines 86-91:	N297 -{typedef union __anon_type_pthread_rwlock_t pthread_rwlock_t;}-> N298
/usr/include/x86_64-linux-gnu/bits/pthreadtypes.h, lines 93-97:	N298 -{union __anon_type_pthread_rwlockattr_t {   char __size[8];   long int __align; } ;}-> N299
/usr/include/x86_64-linux-gnu/bits/pthreadtypes.h, lines 93-97:	N299 -{typedef union __anon_type_pthread_rwlockattr_t pthread_rwlockattr_t;}-> N300
/usr/include/x86_64-linux-gnu/bits/pthreadtypes.h, line 103:	N300 -{typedef volatile int pthread_spinlock_t;}-> N301
/usr/include/x86_64-linux-gnu/bits/pthreadtypes.h, lines 108-112:	N301 -{union __anon_type_pthread_barrier_t {   char __size[32];   long int __align; } ;}-> N302
/usr/include/x86_64-linux-gnu/bits/pthreadtypes.h, lines 108-112:	N302 -{typedef union __anon_type_pthread_barrier_t pthread_barrier_t;}-> N303
/usr/include/x86_64-linux-gnu/bits/pthreadtypes.h, lines 114-118:	N303 -{union __anon_type_pthread_barrierattr_t {   char __size[4];   int __align; } ;}-> N304
/usr/include/x86_64-linux-gnu/bits/pthreadtypes.h, lines 114-118:	N304 -{typedef union __anon_type_pthread_mutexattr_t pthread_barrierattr_t;}-> N305
/usr/include/stdlib.h, line 402:	N305 -{long int random();}-> N306
/usr/include/stdlib.h, line 405:	N306 -{void srandom(unsigned int __seed);}-> N307
/usr/include/stdlib.h, lines 411-412:	N307 -{char *initstate(unsigned int __seed, char *__statebuf, size_t __statelen);}-> N308
/usr/include/stdlib.h, line 416:	N308 -{char *setstate(char *__statebuf);}-> N309
/usr/include/stdlib.h, lines 424-433:	N309 -{struct random_data {   int32_t *fptr;   int32_t *rptr;   int32_t *state;   int rand_type;   int rand_deg;   int rand_sep;   int32_t *end_ptr; } ;}-> N310
/usr/include/stdlib.h, lines 435-436:	N310 -{int random_r(struct random_data *__buf, int32_t *__result);}-> N311
/usr/include/stdlib.h, lines 438-439:	N311 -{int srandom_r(unsigned int __seed, struct random_data *__buf);}-> N312
/usr/include/stdlib.h, lines 441-444:	N312 -{int initstate_r(unsigned int __seed, char *__statebuf, size_t __statelen, struct random_data *__buf);}-> N313
/usr/include/stdlib.h, lines 446-448:	N313 -{int setstate_r(char *__statebuf, struct random_data *__buf);}-> N314
/usr/include/stdlib.h, line 454:	N314 -{int rand();}-> N315
/usr/include/stdlib.h, line 456:	N315 -{void srand(unsigned int __seed);}-> N316
/usr/include/stdlib.h, line 460:	N316 -{int rand_r(unsigned int *__seed);}-> N317
/usr/include/stdlib.h, line 468:	N317 -{double drand48();}-> N318
/usr/include/stdlib.h, line 469:	N318 -{double erand48(unsigned short int __xsubi[3]);}-> N319
/usr/include/stdlib.h, line 472:	N319 -{long int lrand48();}-> N320
/usr/include/stdlib.h, lines 473-474:	N320 -{long int nrand48(unsigned short int __xsubi[3]);}-> N321
/usr/include/stdlib.h, line 477:	N321 -{long int mrand48();}-> N322
/usr/include/stdlib.h, lines 478-479:	N322 -{long int jrand48(unsigned short int __xsubi[3]);}-> N323
/usr/include/stdlib.h, line 482:	N323 -{void srand48(long int __seedval);}-> N324
/usr/include/stdlib.h, lines 483-484:	N324 -{unsigned short int *seed48(unsigned short int __seed16v[3]);}-> N325
/usr/include/stdlib.h, line 485:	N325 -{void lcong48(unsigned short int __param[7]);}-> N326
/usr/include/stdlib.h, lines 491-499:	N326 -{struct drand48_data {   unsigned short int __x[3];   unsigned short int __old_x[3];   unsigned short int __c;   unsigned short int __init;   unsigned long long int __a; } ;}-> N327
/usr/include/stdlib.h, lines 502-503:	N327 -{int drand48_r(struct drand48_data *__buffer, double *__result);}-> N328
/usr/include/stdlib.h, lines 504-506:	N328 -{int erand48_r(unsigned short int __xsubi[3], struct drand48_data *__buffer, double *__result);}-> N329
/usr/include/stdlib.h, lines 509-511:	N329 -{int lrand48_r(struct drand48_data *__buffer, long int *__result);}-> N330
/usr/include/stdlib.h, lines 512-515:	N330 -{int nrand48_r(unsigned short int __xsubi[3], struct drand48_data *__buffer, long int *__result);}-> N331
/usr/include/stdlib.h, lines 518-520:	N331 -{int mrand48_r(struct drand48_data *__buffer, long int *__result);}-> N332
/usr/include/stdlib.h, lines 521-524:	N332 -{int jrand48_r(unsigned short int __xsubi[3], struct drand48_data *__buffer, long int *__result);}-> N333
/usr/include/stdlib.h, lines 527-528:	N333 -{int srand48_r(long int __seedval, struct drand48_data *__buffer);}-> N334
/usr/include/stdlib.h, lines 530-531:	N334 -{int seed48_r(unsigned short int __seed16v[3], struct drand48_data *__buffer);}-> N335
/usr/include/stdlib.h, lines 533-535:	N335 -{int lcong48_r(unsigned short int __param[7], struct drand48_data *__buffer);}-> N336
/usr/include/stdlib.h, lines 540-541:	N336 -{void *malloc(size_t __size);}-> N337
/usr/include/stdlib.h, lines 543-544:	N337 -{void *calloc(size_t __nmemb, size_t __size);}-> N338
/usr/include/stdlib.h, lines 551-552:	N338 -{void *realloc(void *__ptr, size_t __size);}-> N339
/usr/include/stdlib.h, line 555:	N339 -{void free(void *__ptr);}-> N340
/usr/include/stdlib.h, lines 563-566:	N340 -{void *reallocarray(void *__ptr, size_t __nmemb, size_t __size);}-> N341
/usr/include/alloca.h, line 32:	N341 -{void *alloca(size_t __size);}-> N342
/usr/include/stdlib.h, lines 580-581:	N342 -{void *valloc(size_t __size);}-> N343
/usr/include/stdlib.h, lines 586-587:	N343 -{int posix_memalign(void **__memptr, size_t __alignment, size_t __size);}-> N344
/usr/include/stdlib.h, lines 592-594:	N344 -{void *aligned_alloc(size_t __alignment, size_t __size);}-> N345
/usr/include/stdlib.h, line 598:	N345 -{void abort();}-> N346
/usr/include/stdlib.h, line 602:	N346 -{int atexit(void (*__func)());}-> N347
/usr/include/stdlib.h, line 610:	N347 -{int at_quick_exit(void (*__func)());}-> N348
/usr/include/stdlib.h, lines 617-618:	N348 -{int on_exit(void (*__func)(int __status, void *__arg), void *__arg);}-> N349
/usr/include/stdlib.h, line 624:	N349 -{void exit(int __status);}-> N350
/usr/include/stdlib.h, line 630:	N350 -{void quick_exit(int __status);}-> N351
/usr/include/stdlib.h, line 636:	N351 -{void _Exit(int __status);}-> N352
/usr/include/stdlib.h, line 641:	N352 -{char *getenv(const char *__name);}-> N353
/usr/include/stdlib.h, line 654:	N353 -{int putenv(char *__string);}-> N354
/usr/include/stdlib.h, lines 660-661:	N354 -{int setenv(const char *__name, const char *__value, int __replace);}-> N355
/usr/include/stdlib.h, line 664:	N355 -{int unsetenv(const char *__name);}-> N356
/usr/include/stdlib.h, line 671:	N356 -{int clearenv();}-> N357
/usr/include/stdlib.h, line 682:	N357 -{char *mktemp(char *__template);}-> N358
/usr/include/stdlib.h, line 695:	N358 -{int mkstemp(char *__template);}-> N359
/usr/include/stdlib.h, line 717:	N359 -{int mkstemps(char *__template, int __suffixlen);}-> N360
/usr/include/stdlib.h, line 738:	N360 -{char *mkdtemp(char *__template);}-> N361
/usr/include/stdlib.h, line 791:	N361 -{int system(const char *__command);}-> N362
/usr/include/stdlib.h, lines 808-809:	N362 -{char *realpath(const char *__name, char *__resolved);}-> N363
/usr/include/stdlib.h, line 816:	N363 -{typedef int (*__compar_fn_t)(const void *, const void *);}-> N364
/usr/include/stdlib.h, lines 828-830:	N364 -{void *bsearch(const void *__key, const void *__base, size_t __nmemb, size_t __size, __compar_fn_t __compar);}-> N365
/usr/include/stdlib.h, lines 838-839:	N365 -{void qsort(void *__base, size_t __nmemb, size_t __size, __compar_fn_t __compar);}-> N366
/usr/include/stdlib.h, line 848:	N366 -{int abs(int __x);}-> N367
/usr/include/stdlib.h, line 849:	N367 -{long int labs(long int __x);}-> N368
/usr/include/stdlib.h, lines 852-853:	N368 -{long long int llabs(long long int __x);}-> N369
/usr/include/stdlib.h, lines 860-861:	N369 -{div_t div(int __numer, int __denom);}-> N370
/usr/include/stdlib.h, lines 862-863:	N370 -{ldiv_t ldiv(long int __numer, long int __denom);}-> N371
/usr/include/stdlib.h, lines 866-868:	N371 -{lldiv_t lldiv(long long int __numer, long long int __denom);}-> N372
/usr/include/stdlib.h, lines 880-881:	N372 -{char *ecvt(double __value, int __ndigit, int *__decpt, int *__sign);}-> N373
/usr/include/stdlib.h, lines 886-887:	N373 -{char *fcvt(double __value, int __ndigit, int *__decpt, int *__sign);}-> N374
/usr/include/stdlib.h, lines 892-893:	N374 -{char *gcvt(double __value, int __ndigit, char *__buf);}-> N375
/usr/include/stdlib.h, lines 898-900:	N375 -{char *qecvt(long double __value, int __ndigit, int *__decpt, int *__sign);}-> N376
/usr/include/stdlib.h, lines 901-903:	N376 -{char *qfcvt(long double __value, int __ndigit, int *__decpt, int *__sign);}-> N377
/usr/include/stdlib.h, lines 904-905:	N377 -{char *qgcvt(long double __value, int __ndigit, char *__buf);}-> N378
/usr/include/stdlib.h, lines 910-912:	N378 -{int ecvt_r(double __value, int __ndigit, int *__decpt, int *__sign, char *__buf, size_t __len);}-> N379
/usr/include/stdlib.h, lines 913-915:	N379 -{int fcvt_r(double __value, int __ndigit, int *__decpt, int *__sign, char *__buf, size_t __len);}-> N380
/usr/include/stdlib.h, lines 917-920:	N380 -{int qecvt_r(long double __value, int __ndigit, int *__decpt, int *__sign, char *__buf, size_t __len);}-> N381
/usr/include/stdlib.h, lines 921-924:	N381 -{int qfcvt_r(long double __value, int __ndigit, int *__decpt, int *__sign, char *__buf, size_t __len);}-> N382
/usr/include/stdlib.h, line 930:	N382 -{int mblen(const char *__s, size_t __n);}-> N383
/usr/include/stdlib.h, lines 933-934:	N383 -{int mbtowc(wchar_t *__pwc, const char *__s, size_t __n);}-> N384
/usr/include/stdlib.h, line 937:	N384 -{int wctomb(char *__s, wchar_t __wchar);}-> N385
/usr/include/stdlib.h, lines 941-943:	N385 -{size_t mbstowcs(wchar_t *__pwcs, const char *__s, size_t __n);}-> N386
/usr/include/stdlib.h, lines 945-949:	N386 -{size_t wcstombs(char *__s, const wchar_t *__pwcs, size_t __n);}-> N387
/usr/include/stdlib.h, line 956:	N387 -{int rpmatch(const char *__response);}-> N388
/usr/include/stdlib.h, lines 967-970:	N388 -{int getsubopt(char **__optionp, char * const *__tokens, char **__valuep);}-> N389
/usr/include/stdlib.h, lines 1013-1014:	N389 -{int getloadavg(double __loadavg[], int __nelem);}-> N390
lines 9-11:	N390 -{void assume(int cond);}-> N391
lines 13-44:	N391 -{int main();}-> N392
none:	N392 -{Function start dummy edge}-> N38
line 15:	N38 -{_Bool bVar1;}-> N39
line 16:	N39 -{int iVar2;}-> N40
line 17:	N40 -{int local_34;}-> N41
	local_34 == 2;
line 18:	N41 -{int tmp_var_2_int;}-> N42
	tmp_var_2_int == -2147483648U;
line 19:	N42 -{long long z;}-> N43
line 20:	N43 -{long long y;}-> N44
line 21:	N44 -{long long _a;}-> N45
line 22:	N45 -{int counter;}-> N46
	counter == 2;
line 24:	N46 -{assume((uint )(0 < local_34))}-> N31
none:	N31 -{Function start dummy edge}-> N32
	cond == 1;
line 10:	N32 -{[!(cond == 0)]}-> N33
	cond == 1;
	cond == 1;
none:	N33 -{default return}-> N30
line 24:	N30 -{Return edge from assume to main: assume((uint )(0 < local_34));}-> N47
line 25:	N47 -{y = (long long)tmp_var_2_int;}-> N48
	y == -2147483648LL;
line 26:	N48 -{z = (long long)local_34;}-> N49
	z == 2LL;
line 27:	N49 -{_a = 0;}-> N50
	_a == 0LL;
line 28:	N50 -{while}-> N51
lines 28-39:	N51 -{_Bool __CPAchecker_TMP_0;}-> N54
line 28:	N54 -{iVar2 = counter + 1;}-> N55
	iVar2 == 3;
line 28:	N55 -{bVar1 = counter < 1;}-> N56
	bVar1 == 0;
line 28:	N56 -{counter = iVar2;}-> N57
	counter == 3;
line 28:	N57 -{__CPAchecker_TMP_0 = bVar1;}-> N58
	__CPAchecker_TMP_0 == 0;
line 28:	N58 -{[__CPAchecker_TMP_0 == 0]}-> N53
	__CPAchecker_TMP_0 == 0;
	__CPAchecker_TMP_0 == 0;
line 40:	N53 -{[_a != (((long long)tmp_var_2_int) * ((long long)local_34))]}-> N82
	_a == 0LL;
	_a == 0LL;
((long long)tmp_var_2_int) * ((long long)local_34) == 4294967296
line 41:	N82 -{int __CPAchecker_TMP_6;}-> N83
line 41:	N83 -{}-> N85
line 41:	N85 -{__CPAchecker_TMP_6 = 0;}-> N87
line 41:	N87 -{4UL;}-> N88
line 41:	N88 -{}-> N91
line 41:	N91 -{__assert_fail("0 && \"Assertion failed: z == (long long) a * b\"", "/home/zyl/biVerify/CPA_DATA2/C/F/llmfix/realOutput/iterationTry/prodbin-ll_unwindbound1_process_dc_iter2.c", 41, "__PRETTY_FUNCTION__");}-> N394
